(set-option :produce-models true)
(set-logic QF_UF)
(declare-fun p23() Bool)
(declare-fun p7() Bool)
(declare-fun p40() Bool)
(declare-fun p9() Bool)
(declare-fun p45() Bool)
(declare-fun p5() Bool)
(declare-fun p0() Bool)
(declare-fun p41() Bool)
(declare-fun p31() Bool)
(declare-fun p39() Bool)
(declare-fun p25() Bool)
(declare-fun p14() Bool)
(declare-fun p18() Bool)
(declare-fun p22() Bool)
(declare-fun p19() Bool)
(declare-fun p20() Bool)
(declare-fun p3() Bool)
(declare-fun p33() Bool)
(declare-fun p48() Bool)
(declare-fun p27() Bool)
(declare-fun p1() Bool)
(declare-fun p37() Bool)
(declare-fun p17() Bool)
(declare-fun p11() Bool)
(declare-fun p8() Bool)
(declare-fun p46() Bool)
(declare-fun p47() Bool)
(declare-fun p2() Bool)
(declare-fun p44() Bool)
(declare-fun p38() Bool)
(declare-fun p28() Bool)
(declare-fun p49() Bool)
(declare-fun p34() Bool)
(declare-fun p15() Bool)
(declare-fun p6() Bool)
(declare-fun p4() Bool)
(declare-fun p43() Bool)
(declare-fun p36() Bool)
(declare-fun p13() Bool)
(declare-fun p42() Bool)
(declare-fun p32() Bool)
(declare-fun p35() Bool)
(declare-fun p21() Bool)
(declare-fun p30() Bool)
(declare-fun p10() Bool)
(declare-fun p26() Bool)
(declare-fun p24() Bool)
(declare-fun p29() Bool)
(declare-fun p16() Bool)
(declare-fun p12() Bool)
(assert
(and (or p23 (not p7) p40) (or (not p9) (not p45) p5) (or p5 p0 p41) (or p31 p39 (not p25)) (or p41 (not p39) (not p14)) (or (not p9) (not p18) p22) (or (not p19) (not p41) p23) (or (not p20) p18 p3) (or p33 p48 (not p7)) (or (not p27) (not p1) p19) (or (not p37) p17 p11) (or (not p8) (not p31) (not p46)) (or p41 (not p27) (not p46)) (or p47 p2 p45) (or (not p27) p44 p18) (or (not p38) (not p37) p48) (or (not p11) (not p23) p20) (or p1 p31 p48) (or (not p8) p28 p40) (or (not p44) p18 (not p49)) (or (not p34) (not p48) p2) (or p0 p5 p28) (or p1 p23 p38) (or p46 (not p34) (not p2)) (or (not p11) (not p15) p0) (or p23 p8 (not p19)) (or (not p6) p4 p9) (or p2 p5 (not p7)) (or (not p45) p43 (not p7)) (or (not p36) p45 (not p38)) (or p2 (not p13) p27) (or (not p13) p0 p20) (or (not p28) (not p38) p18) (or (not p31) (not p8) (not p28)) (or p33 p28 (not p17)) (or p42 (not p49) p32) (or (not p35) (not p21) p30) (or p11 p4 p1) (or p41 p37 (not p25)) (or p41 p33 (not p27)) (or p34 (not p11) p10) (or p17 p37 p4) (or p39 p34 (not p31)) (or (not p45) (not p20) (not p2)) (or (not p25) p0 (not p45)) (or (not p37) p9 p27) (or (not p26) (not p22) (not p24)) (or (not p10) p0 p13) (or (not p8) (not p33) (not p42)) (or p26 (not p2) (not p32)) (or (not p27) p31 (not p48)) (or p45 (not p43) (not p6)) (or p7 p45 p38) (or p17 (not p22) (not p42)) (or (not p46) p33 p45) (or (not p32) p8 p36) (or p6 (not p31) (not p49)) (or (not p20) p26 (not p5)) (or (not p5) (not p27) (not p43)) (or p45 p29 (not p6)) (or (not p37) (not p13) (not p16)) (or (not p31) (not p13) (not p37)) (or p47 (not p23) (not p42)) (or (not p18) (not p24) (not p21)) (or (not p10) p4 p21) (or (not p41) (not p37) (not p20)) (or p7 (not p37) p16) (or p16 (not p6) (not p0)) (or (not p38) (not p39) (not p29)) (or p3 (not p47) p3) (or (not p4) p42 p29) (or p26 p18 p42) (or p29 p12 p5) (or (not p42) p27 p22) (or p7 (not p1) p21) (or p35 (not p19) p46) (or p39 (not p37) (not p10)) (or (not p41) (not p17) p24) (or (not p24) (not p44) p38) (or p21 (not p29) p1) (or p6 p9 p3) (or p8 (not p15) (not p37)) (or p30 (not p45) (not p24)) (or p45 p2 p43) (or (not p13) p1 p23) (or (not p33) p2 p42) (or (not p20) p0 (not p40)) (or p25 p47 p14) (or (not p20) (not p41) p12) (or p2 p4 p21) (or p42 (not p14) (not p3)) (or (not p29) (not p11) (not p45)) (or (not p33) (not p44) (not p24)) (or p14 p3 (not p38)) (or (not p26) p5 p26) (or (not p49) (not p27) (not p23)) (or (not p17) p45 (not p44)) (or p14 (not p41) p43) (or p19 (not p39) p0) (or (not p46) (not p27) (not p41)) (or (not p0) (not p41) (not p39)) (or p48 (not p18) p8) (or p13 (not p44) (not p30)) (or (not p43) p30 (not p41)) (or p0 (not p9) (not p43)) (or p42 p23 p26) (or p2 p25 p11) (or (not p28) p42 (not p23)) (or (not p31) (not p37) (not p15)) (or p22 (not p25) (not p0)) (or p35 (not p16) p4) (or p13 (not p27) p34) (or p26 (not p28) p36) (or p35 (not p41) (not p6)) (or p36 p30 p6) (or (not p15) p41 (not p9)) (or (not p33) p29 (not p17)) (or (not p48) p21 p48) (or (not p11) (not p14) (not p42)) (or (not p40) p48 (not p35)) (or p0 p38 (not p11)) (or p31 (not p30) (not p5)) (or p25 (not p45) p1) (or (not p17) (not p32) (not p40)) (or (not p36) p18 (not p40)) (or p20 (not p31) p7) (or p5 p41 p47) (or (not p40) (not p12) (not p44)) (or p14 p0 p35) (or p36 (not p40) (not p14)) (or p18 (not p49) p43) (or p11 (not p5) p35) (or p37 (not p0) (not p15)) (or p33 (not p40) p20) (or p30 (not p13) p2) (or p32 (not p9) (not p34)) (or p15 p33 (not p21)) (or (not p43) (not p44) (not p38)) (or p11 p43 (not p3)) (or p15 p44 p42) (or p45 p3 p36) (or p11 p0 p27) (or (not p11) (not p41) p42) (or p22 (not p26) (not p31)) (or (not p42) p32 (not p12)) (or (not p18) p24 (not p18)) (or (not p0) (not p11) p10) (or p13 p46 p48) (or (not p13) (not p4) (not p47)) (or (not p21) (not p37) (not p38)) (or p15 p38 p44) (or (not p22) p26 (not p46)) (or (not p34) p44 p11) (or p1 p35 (not p39)) (or p39 (not p39) (not p13)) (or p26 (not p4) p23) (or p33 p38 p46) (or p5 (not p0) p21) (or (not p44) p12 p36) (or p7 p18 p5) (or (not p10) p18 p46) (or (not p1) p45 (not p45)) (or (not p38) p45 (not p14)) (or (not p41) (not p29) (not p27)) (or p33 (not p13) (not p29)) (or p37 p37 (not p46)) (or (not p10) p29 p19) (or p5 p21 p32) (or p47 p22 p9) (or (not p47) p32 (not p5)) (or (not p3) (not p39) p3) (or p39 p6 (not p31)) (or (not p9) p2 p20) (or p37 p45 (not p20)) (or p12 (not p23) (not p13)) (or p27 p23 (not p48)) (or (not p34) p24 p47) (or (not p30) (not p6) (not p10)) (or p15 (not p31) p23) (or p27 p7 (not p21)) (or (not p45) (not p21) p48) (or (not p11) (not p12) p22) (or p22 (not p45) p18) (or (not p22) p49 (not p34)) (or (not p40) p22 p48) (or (not p5) p1 (not p3)) (or p26 p27 (not p41)) (or (not p46) p42 p19) (or p28 (not p32) p38) (or p7 (not p37) p43) (or p37 (not p17) p40) (or (not p21) p41 p3) (or p31 (not p37) (not p8)) (or p36 p9 (not p35)) (or (not p33) p43 (not p37)) (or (not p15) p41 (not p3)) (or p44 (not p27) p1) (or (not p40) (not p43) (not p1)) (or (not p29) (not p49) p32) (or p16 (not p14) (not p10)) (or (not p3) p35 p41) (or (not p7) (not p1) p2) (or (not p49) p12 (not p47)) (or (not p6) p40 p19) (or p31 p38 p44) (or (not p43) p34 (not p35)) (or p44 (not p3) (not p15)) (or p24 p48 (not p48)) (or p17 (not p24) (not p13)) (or p45 p44 (not p8)))
)
(check-sat)
(get-model)
